language ESSENCE' 1.0

letting nnodes be 7
letting nrings be 4
letting capacity be 4
letting demand_ExplicitR3_Explicit be
        [[1, 3; int(1..2)], [1, 4; int(1..2)], [1, 7; int(1..2)], [2, 4; int(1..2)], [3, 5; int(1..2)],
         [3, 6; int(1..2)], [5, 7; int(1..2)], [6, 7; int(1..2)];
             int(1..8)]
$ Visualisation for demand_ExplicitR3_Explicit
$ 1 3
$ 1 4
$ 1 7
$ 2 4
$ 3 5
$ 3 6
$ 5 7
$ 6 7

letting fin1 be 8
